50, 1421
38, 33
76, 66
38, 33
23, 18
46, 36
92, 72
23, 18
51, 46
102, 92
102, 92
52, 47
104, 94
208, 188
156, 141
38, 33
76, 66
152, 132
13, 8
26, 16
52, 32
39, 24
48, 43
96, 86
192, 172
41, 36
82, 72
41, 36
53, 48
53, 48
27, 22
54, 44
108, 88
27, 22
10, 5
42, 37
33, 28
66, 56
132, 112
66, 56
38, 33
38, 33
29, 24
58, 48
87, 72
49, 44
98, 88
147, 132
27, 22
27, 22
32, 27
